c File  p_hat700-1.clq                
c
c Source: P. Soriano and M. Gendreau at  patrick@crt.umontreal.ca
c
c Reference: p-hat graphs are generated with the p-hat generator
c 	      which is a generalization of the classical uniform
c 	      random graph generator.
c 	      Graphs generated with p-hat have wider node degree spread
c 	      and larger cliques than uniform graphs.
c
c NOTE: September 23, 1993 Corrected corrupted file at DIMACS.
c
c
c Generation parameters: 
c 	n =    700 a =  0.00  b =  0.50  Expected density =  0.25
c	Seed =      16313       Real density =  0.249
c
p edge  700     60999	
e 4 3
e 5 1
e 5 4
e 7 1
e 8 1
e 8 2
e 9 5
e 9 6
e 10 1
e 10 8
e 11 1
e 11 5
e 11 8
e 11 10
e 12 3
e 12 4
e 12 8
e 13 4
e 13 9
e 13 10
e 13 12
e 14 5
e 14 6
e 14 7
e 14 8
e 14 10
e 14 11
e 15 2
e 15 3
e 15 5
e 15 13
e 15 14
e 16 4
e 16 7
e 16 8
e 16 12
e 17 3
e 17 4
e 17 5
e 17 7
e 17 8
e 17 15
e 18 5
e 18 7
e 18 9
e 18 15
e 19 1
e 19 2
e 19 12
e 19 13
e 19 14
e 20 1
e 20 8
e 20 14
e 20 16
e 20 17
e 20 19
e 21 6
e 21 9
e 22 3
e 22 8
e 22 11
e 22 19
e 23 3
e 23 5
e 23 6
e 23 8
e 23 15
e 23 16
e 23 21
e 24 1
e 24 3
e 24 4
e 24 7
e 24 12
e 24 15
e 24 16
e 24 23
e 25 1
e 25 4
e 25 11
e 25 12
e 25 13
e 25 15
e 25 21
e 25 24
e 26 3
e 26 5
e 26 9
e 26 12
e 26 13
e 26 14
e 26 15
e 26 24
e 26 25
e 27 2
e 27 3
e 27 4
e 27 5
e 27 9
e 27 10
e 27 13
e 27 24
e 28 8
e 28 11
e 28 14
e 28 17
e 28 18
e 28 19
e 29 1
e 29 3
e 29 14
e 29 19
e 29 25
e 29 27
e 30 6
e 30 8
e 30 14
e 30 15
e 30 19
e 30 24
e 30 26
e 30 28
e 31 1
e 31 3
e 31 6
e 31 8
e 31 9
e 31 11
e 31 15
e 31 16
e 31 17
e 31 18
e 31 19
e 31 20
e 31 24
e 31 27
e 31 29
e 32 9
e 32 12
e 32 14
e 32 31
e 33 12
e 33 14
e 33 15
e 33 16
e 33 26
e 33 31
e 34 5
e 34 16
e 34 17
e 34 23
e 34 24
e 34 27
e 34 30
e 35 15
e 35 17
e 35 23
e 35 25
e 35 28
e 35 30
e 36 1
e 36 2
e 36 6
e 36 7
e 36 10
e 36 11
e 36 12
e 36 17
e 36 24
e 36 25
e 36 28
e 36 31
e 37 9
e 37 12
e 37 14
e 37 19
e 37 20
e 37 23
e 37 27
e 37 28
e 37 34
e 37 35
e 37 36
e 38 1
e 38 7
e 38 9
e 38 14
e 38 17
e 38 19
e 38 27
e 38 28
e 38 31
e 38 33
e 39 1
e 39 2
e 39 3
e 39 4
e 39 10
e 39 17
e 39 24
e 39 30
e 39 36
e 39 38
e 40 3
e 40 26
e 40 31
e 40 37
e 41 12
e 41 15
e 41 16
e 41 23
e 41 28
e 41 30
e 41 37
e 42 4
e 42 9
e 42 16
e 42 19
e 42 20
e 42 23
e 42 26
e 42 34
e 42 38
e 42 40
e 43 6
e 43 11
e 43 15
e 43 17
e 43 24
e 43 36
e 44 12
e 44 16
e 44 26
e 44 41
e 45 8
e 45 21
e 45 30
e 45 40
e 45 41
e 46 15
e 46 30
e 46 37
e 46 38
e 47 15
e 47 17
e 47 19
e 47 28
e 48 2
e 48 3
e 48 5
e 48 8
e 48 15
e 48 17
e 48 19
e 48 23
e 48 24
e 48 28
e 48 32
e 48 36
e 48 39
e 48 41
e 48 46
e 49 13
e 49 14
e 49 16
e 49 20
e 49 26
e 49 33
e 49 35
e 49 40
e 49 41
e 50 5
e 50 8
e 50 9
e 50 11
e 50 13
e 50 19
e 50 23
e 50 27
e 50 32
e 50 33
e 50 34
e 50 37
e 50 39
e 50 44
e 50 45
e 50 49
e 51 3
e 51 5
e 51 12
e 51 14
e 51 16
e 51 19
e 51 20
e 51 28
e 51 30
e 51 36
e 51 39
e 51 47
e 51 50
e 52 1
e 52 11
e 52 12
e 52 17
e 52 19
e 52 26
e 52 27
e 52 35
e 52 37
e 52 39
e 52 49
e 52 50
e 53 7
e 53 15
e 53 21
e 53 24
e 53 25
e 53 30
e 53 31
e 53 32
e 53 41
e 53 44
e 53 48
e 53 50
e 54 1
e 54 2
e 54 3
e 54 5
e 54 10
e 54 12
e 54 16
e 54 19
e 54 22
e 54 30
e 54 34
e 54 42
e 54 43
e 54 45
e 54 47
e 54 48
e 54 50
e 55 12
e 55 20
e 55 48
e 55 51
e 55 54
e 56 4
e 56 8
e 56 10
e 56 14
e 56 15
e 56 17
e 56 19
e 56 21
e 56 24
e 56 26
e 56 31
e 56 34
e 56 48
e 57 1
e 57 5
e 57 6
e 57 15
e 57 17
e 57 23
e 57 26
e 57 33
e 57 34
e 57 36
e 57 37
e 57 39
e 57 54
e 57 55
e 58 1
e 58 8
e 58 12
e 58 14
e 58 16
e 58 19
e 58 21
e 58 24
e 58 25
e 58 26
e 58 28
e 58 33
e 58 35
e 58 47
e 58 48
e 58 53
e 58 54
e 58 55
e 59 1
e 59 8
e 59 14
e 59 28
e 59 29
e 59 31
e 59 32
e 59 41
e 59 42
e 59 46
e 59 50
e 59 55
e 60 1
e 60 2
e 60 4
e 60 8
e 60 9
e 60 13
e 60 18
e 60 21
e 60 26
e 60 30
e 60 34
e 60 39
e 60 44
e 60 47
e 60 48
e 60 51
e 60 52
e 60 55
e 60 57
e 61 3
e 61 6
e 61 8
e 61 14
e 61 17
e 61 24
e 61 28
e 61 31
e 61 48
e 61 50
e 61 54
e 62 4
e 62 10
e 62 25
e 62 30
e 62 43
e 62 47
e 63 3
e 63 10
e 63 14
e 63 21
e 63 24
e 63 25
e 63 26
e 63 27
e 63 31
e 63 40
e 63 41
e 63 45
e 63 51
e 64 3
e 64 8
e 64 12
e 64 14
e 64 19
e 64 28
e 64 32
e 64 36
e 64 44
e 64 45
e 64 46
e 64 47
e 64 50
e 64 54
e 64 63
e 65 3
e 65 4
e 65 7
e 65 16
e 65 20
e 65 30
e 65 32
e 65 35
e 65 37
e 65 41
e 65 48
e 65 49
e 65 52
e 65 55
e 65 56
e 65 57
e 65 59
e 65 60
e 65 61
e 65 63
e 66 4
e 66 9
e 66 10
e 66 11
e 66 12
e 66 15
e 66 18
e 66 23
e 66 25
e 66 37
e 66 40
e 66 45
e 66 47
e 66 48
e 66 54
e 66 64
e 67 10
e 67 12
e 67 17
e 67 19
e 67 26
e 67 28
e 67 34
e 67 36
e 67 57
e 67 58
e 67 60
e 68 8
e 68 16
e 68 18
e 68 25
e 68 27
e 68 30
